<number of tasks>
20


<number of equipment>
5


<cycle time>
1000


<investment costs>
1,11966
2,10396
3,20954
4,8897
5,29212


<task times>
1,-1,-1,123,-1,105
2,217,-1,167,-1,126
3,-1,270,-1,295,52
4,275,-1,170,-1,66
5,288,-1,150,-1,65
6,-1,197,-1,288,59
7,-1,258,-1,106,63
8,178,-1,85,-1,47
9,-1,350,-1,350,281
10,-1,316,-1,316,130
11,-1,-1,133,-1,52
12,-1,282,-1,213,70
13,-1,259,-1,332,58
14,159,-1,135,-1,68
15,-1,266,-1,336,82
16,-1,-1,170,-1,122
17,-1,280,-1,211,50
18,275,-1,178,-1,58
19,-1,220,-1,336,80
20,251,-1,133,-1,55


<precedence relations>
1,4
1,6
2,5
3,12
3,15
4,9
5,19
5,20
6,7
6,8
6,9
7,11
8,11
8,16
8,18
8,19
9,10
9,11
10,12
10,13
10,14
10,15
11,14
11,15
12,19
13,16
13,17
13,18
15,17
15,20


<task types>
1,1
2,2
3,3
4,2
5,2
6,3
7,3
8,2
9,3
10,3
11,1
12,3
13,3
14,2
15,3
16,1
17,3
18,2
19,3
20,2


<line depot>
1,0
2,0
3,0
4,0
5,3


<processing costs>
1,7200
2,7200
3,14400
4,7200
5,21600


<saving costs>
1,1196
2,1039
3,2095
4,889
5,2921


<end>
